nNurses = 136;
hours = 51;
demand = [9 5 28 18 32 20 8 4 30 8 5 17 24 19 1 26 22 11 31 16 26 3 10 25 23 23 23 0 29 1 8 10 16 3 14 4 11 11 3 27 1 6 30 13 32 10 17 17 13 33 13];
minHours = 12;
maxHours = 27;
maxConsec = 7;
maxPresence = 44;